jobs  (incl. supersource/sink ):	52
RESOURCES
- renewable                 : 2 R
- nonrenewable              : 2 N
- doubly constrained        : 0 D
************************************************************************
PRECEDENCE RELATIONS:
jobnr.    #modes  #successors   successors
1	1	12		2 3 5 6 7 11 14 17 22 26 30 31 
2	3	8		51 28 25 21 19 15 9 4 
3	3	11		50 45 37 36 24 23 21 18 16 13 12 
4	3	8		50 49 36 20 18 13 10 8 
5	3	13		51 50 49 48 47 46 44 43 37 36 35 34 24 
6	3	11		49 48 47 45 44 42 39 38 36 29 24 
7	3	11		51 50 46 44 43 42 36 35 29 27 24 
8	3	9		47 46 45 43 37 35 34 24 23 
9	3	9		47 46 45 44 42 38 33 29 18 
10	3	10		46 45 44 43 42 38 35 34 27 24 
11	3	10		49 48 46 45 44 43 42 33 32 29 
12	3	8		48 47 46 44 42 33 29 28 
13	3	7		48 46 42 38 34 32 27 
14	3	7		47 45 44 37 36 33 32 
15	3	6		49 47 44 42 32 29 
16	3	6		49 48 47 43 41 34 
17	3	4		45 43 39 28 
18	3	4		43 35 34 32 
19	3	5		46 45 42 41 40 
20	3	4		46 45 43 37 
21	3	3		44 33 29 
22	3	3		45 43 29 
23	3	4		44 42 41 40 
24	3	2		33 32 
25	3	3		46 43 40 
26	3	3		44 43 40 
27	3	2		41 33 
28	3	2		40 32 
29	3	2		41 40 
30	3	2		45 43 
31	3	2		43 42 
32	3	1		41 
33	3	1		40 
34	3	1		40 
35	3	1		40 
36	3	1		40 
37	3	1		42 
38	3	1		40 
39	3	1		41 
40	3	1		52 
41	3	1		52 
42	3	1		52 
43	3	1		52 
44	3	1		52 
45	3	1		52 
46	3	1		52 
47	3	1		52 
48	3	1		52 
49	3	1		52 
50	3	1		52 
51	3	1		52 
52	1	0		
************************************************************************
REQUESTS/DURATIONS
jobnr.	mode	dur	R1	R2	N1	N2	
------------------------------------------------------------------------
1	1	0	0	0	0	0	
2	1	1	9	9	3	8	
	2	5	8	9	2	6	
	3	6	8	8	1	3	
3	1	1	2	6	2	9	
	2	7	2	3	2	8	
	3	9	1	1	2	8	
4	1	4	5	7	3	10	
	2	8	4	6	3	10	
	3	9	4	6	3	9	
5	1	4	8	8	9	10	
	2	7	7	8	6	8	
	3	9	5	6	2	8	
6	1	7	8	7	10	9	
	2	9	7	4	9	8	
	3	10	7	3	9	8	
7	1	3	5	4	7	5	
	2	7	4	3	6	5	
	3	10	4	3	6	4	
8	1	5	7	9	4	6	
	2	6	5	8	2	6	
	3	10	5	7	2	4	
9	1	3	6	4	7	7	
	2	4	6	4	5	5	
	3	6	6	3	2	5	
10	1	5	10	7	7	5	
	2	7	7	7	5	4	
	3	9	7	7	5	3	
11	1	1	8	8	5	5	
	2	2	5	5	5	4	
	3	4	1	3	5	4	
12	1	3	4	3	4	5	
	2	5	3	2	4	3	
	3	9	2	2	3	1	
13	1	4	7	5	7	4	
	2	8	6	5	5	4	
	3	9	6	5	5	3	
14	1	4	6	7	7	2	
	2	5	4	4	4	2	
	3	6	1	2	4	2	
15	1	1	6	4	4	8	
	2	3	5	4	3	8	
	3	5	5	4	2	8	
16	1	2	8	8	3	6	
	2	7	8	7	2	6	
	3	8	6	5	1	6	
17	1	3	10	7	2	2	
	2	9	9	6	2	2	
	3	10	9	5	2	2	
18	1	1	9	3	10	4	
	2	4	6	3	6	4	
	3	5	5	3	5	4	
19	1	1	5	7	5	7	
	2	7	5	6	4	6	
	3	9	5	5	3	4	
20	1	6	9	5	5	8	
	2	7	8	4	3	8	
	3	8	5	3	1	6	
21	1	4	6	9	9	10	
	2	5	2	7	6	7	
	3	9	2	5	2	4	
22	1	1	10	3	6	5	
	2	3	8	2	6	5	
	3	8	8	2	6	4	
23	1	4	9	5	9	9	
	2	7	5	5	4	7	
	3	8	4	4	1	5	
24	1	2	9	7	8	8	
	2	8	7	6	6	6	
	3	9	7	6	4	4	
25	1	6	7	8	8	8	
	2	9	6	7	6	7	
	3	10	6	7	4	7	
26	1	1	6	6	8	9	
	2	6	6	5	8	9	
	3	9	6	5	8	8	
27	1	3	10	3	7	5	
	2	9	9	2	5	5	
	3	10	8	2	3	5	
28	1	1	10	5	8	5	
	2	8	8	5	7	4	
	3	9	8	5	7	3	
29	1	4	8	9	7	6	
	2	8	6	8	6	5	
	3	10	5	7	5	5	
30	1	3	8	10	1	6	
	2	4	8	6	1	5	
	3	9	8	6	1	3	
31	1	1	5	4	10	5	
	2	3	5	4	6	3	
	3	8	5	3	2	3	
32	1	1	10	1	7	7	
	2	4	10	1	7	5	
	3	5	10	1	5	3	
33	1	4	7	7	7	7	
	2	7	7	6	4	5	
	3	9	5	4	4	4	
34	1	3	1	2	3	8	
	2	6	1	2	2	4	
	3	10	1	2	1	2	
35	1	1	7	4	3	8	
	2	4	6	3	3	7	
	3	6	6	2	3	6	
36	1	1	10	7	10	6	
	2	2	9	5	5	6	
	3	5	8	3	4	5	
37	1	1	6	8	8	7	
	2	3	3	5	8	6	
	3	6	1	5	8	5	
38	1	4	4	4	5	4	
	2	5	3	4	4	3	
	3	10	3	3	2	2	
39	1	1	6	10	5	6	
	2	6	5	9	4	4	
	3	7	2	8	4	4	
40	1	2	7	5	7	8	
	2	4	7	3	7	6	
	3	6	3	2	6	6	
41	1	3	6	7	7	9	
	2	6	4	4	7	8	
	3	7	4	3	3	6	
42	1	4	7	7	8	9	
	2	5	7	6	5	7	
	3	6	6	5	4	7	
43	1	3	6	7	3	1	
	2	8	5	7	2	1	
	3	9	4	7	1	1	
44	1	3	6	2	6	5	
	2	4	6	2	3	3	
	3	9	5	2	2	3	
45	1	4	6	7	7	6	
	2	7	6	5	7	4	
	3	9	6	4	7	3	
46	1	4	4	3	5	3	
	2	5	4	3	4	2	
	3	7	2	3	4	2	
47	1	1	10	7	9	6	
	2	4	8	5	5	6	
	3	5	8	4	5	6	
48	1	5	9	9	2	6	
	2	8	7	7	1	5	
	3	9	6	5	1	4	
49	1	1	5	4	7	6	
	2	3	4	4	6	5	
	3	9	3	3	5	4	
50	1	1	7	8	9	8	
	2	4	4	7	8	6	
	3	10	2	6	8	4	
51	1	2	4	8	5	5	
	2	6	4	6	5	4	
	3	10	4	5	4	3	
52	1	0	0	0	0	0	
************************************************************************

 RESOURCE AVAILABILITIES 
	R 1	R 2	N 1	N 2
	71	72	247	274

************************************************************************
